(set-info :source  loris-7.ddns.comp.nus.edu.sg/~project/hip/) 
;Variables declarations
(declare-fun h_7285 () Int)
(declare-fun na_7282 () Int)
(declare-fun na () Int)
(declare-fun a_primed () Int)
(declare-fun a () Int)
(declare-fun b_primed () Int)
(declare-fun c () Int)
(declare-fun d () Int)
(declare-fun color_primed () Int)
(declare-fun flted_154_7527 () Int)
(declare-fun flted_154_7525 () Int)
(declare-fun flted_154_7524 () Int)
(declare-fun color () Int)
(declare-fun v_int_161_7529 () Int)
(declare-fun v_7568 () Int)
(declare-fun v_int_161_7528 () Int)
(declare-fun l_7569 () Int)
(declare-fun c_primed () Int)
(declare-fun r_7572 () Int)
(declare-fun d_primed () Int)
(declare-fun nc () Int)
(declare-fun nd () Int)
(declare-fun bhl_7571 () Int)
(declare-fun bhr_7574 () Int)
(declare-fun nc_7284 () Int)
(declare-fun nr_7573 () Int)
(declare-fun nl_7570 () Int)
(declare-fun flted_154_7526 () Int)
(declare-fun h () Int)
(declare-fun nb () Int)
(declare-fun b () Int)
;Relations declarations
;Axioms assertions
;Antecedent
(assert (= h_7285 h))
(assert (= na_7282 na))
(assert (= a_primed a))
(assert (= b_primed b))
(assert (= c_primed c))
(assert (= d_primed d))
(assert (= color_primed color))
(assert (= flted_154_7527 0))
(assert (= flted_154_7526 0))
(assert (= flted_154_7525 0))
(assert (= flted_154_7524 0))
(assert (= color 1))
(assert (= v_int_161_7528 0))
(assert (= v_int_161_7529 1))
(assert (= v_7568 v_int_161_7528))
(assert (= l_7569 c_primed))
(assert (= r_7572 d_primed))
(assert (= nl_7570 nc))
(assert (= bhl_7571 h))
(assert (= nr_7573 nd))
(assert (= bhr_7574 h))
(assert (= bhl_7571 bhr_7574))
(assert (= nc_7284 (+ (+ nr_7573 1) nl_7570)))
(assert (or (and (and (and (= flted_154_7526 0) (<= 2 h)) (<= 1 nb)) (> b 0)) (or (and (and (and (< b 1) (= nb 0)) (= h 1)) (= flted_154_7526 0)) (and (and (and (= flted_154_7526 1) (<= 1 h)) (<= 1 nb)) (> b 0)))))
;Negation of Consequence
(assert (not false))
(check-sat)